# Solution for model GasLib-40
# Objective value = 1.1632646061071924e+01
loadshed[innode_1] 0
loadshed[innode_2] 0
loadshed[innode_3] 0
loadshed[innode_4] 0
loadshed[innode_5] 0
loadshed[innode_6] 0
loadshed[innode_7] 0
loadshed[innode_8] 0
loadshed[source_1] -1.5723271984529652e-01
loadshed[source_2] 7.8813031207604078e-03
loadshed[source_3] 2.2293371555139585e-01
loadshed[sink_1] 0
loadshed[sink_2] 0
loadshed[sink_3] 0
loadshed[sink_4] 0
loadshed[sink_5] 0
loadshed[sink_6] 0
loadshed[sink_7] 0
loadshed[sink_8] 0
loadshed[sink_9] 0
loadshed[sink_10] 0
loadshed[sink_11] 0
loadshed[sink_12] 7.1129555532669086e-01
loadshed[sink_13] 0
loadshed[sink_14] 0
loadshed[sink_15] 0
loadshed[sink_16] 0
loadshed[sink_17] 0
loadshed[sink_18] 0
loadshed[sink_19] 0
loadshed[sink_20] 0
loadshed[sink_21] 0
loadshed[sink_22] 0
loadshed[sink_23] 0
loadshed[sink_24] 0
loadshed[sink_25] 0
loadshed[sink_26] 0
loadshed[sink_27] 0
loadshed[sink_28] 0
loadshed[sink_29] 0
flow[source_1,sink_3] 1.8294724213387622e+02
flow[innode_1,sink_16] 1.6354166666666970e+01
flow[innode_6,sink_13] -8.3674580935588239e+00
flow[sink_13,sink_14] -2.4721624760225492e+01
flow[sink_14,sink_10] -4.1075791426892160e+01
flow[sink_25,sink_26] 2.0097152060559512e+02
flow[sink_26,sink_9] 1.2646033351268656e+02
flow[sink_9,sink_18] 1.1010616684601989e+02
flow[sink_26,sink_4] 58.1570204262419
flow[sink_4,sink_20] 0
flow[sink_18,sink_6] 9.3752000179353217e+01
flow[sink_25,innode_8] -1.5023890880053986e+02
flow[sink_6,sink_7] 4.4689500179352763e+01
flow[sink_6,sink_22] 3.2708333333333641e+01
flow[sink_7,sink_24] 3.7429853938928083e+01
flow[sink_22,sink_1] 1.6354166666666970e+01
flow[sink_24,sink_21] 2.1075687272261412e+01
flow[sink_21,sink_12] 4.7215206055947450e+00
flow[sink_7,sink_5] -9.0945204262416866e+00
flow[sink_5,sink_17] -2.5448687092908358e+01
flow[sink_17,sink_4] -4.1802853759575029e+01
flow[sink_17,sink_8] 0
flow[sink_3,sink_23] 16.3541666666697
flow[sink_8,sink_20] -1.6354166666668334e+01
flow[sink_25,sink_20] 3.2708333333335005e+01
flow[sink_25,sink_15] -9.1427653711497967e+01
flow[sink_15,sink_29] -6.0394181096357542e+01
flow[sink_29,sink_28] 1.6354166666667879e+01
flow[sink_29,sink_2] 6.3741805948473775e+01
flow[sink_2,sink_15] 4.7387639281807111e+01
flow[sink_29,innode_7] -1.5684432037816589e+02
flow[innode_4,sink_19] 4.7772076403813642e+01
flow[sink_19,innode_3] 4.3987105742800466e+01
flow[innode_4,innode_5] 7.5074548356411867e+01
flow[sink_27,innode_5] -7.5074548356411867e+01
flow[sink_27,sink_19] 5.8720381689745196e+01
flow[sink_10,sink_11] 3.2708333333333641e+01
flow[sink_10,innode_2] -46.151185684092
flow[sink_10,innode_3] -4.3987105742800466e+01
flow[innode_6,sink_25] 8.3674580935588239e+00
flow[sink_11,innode_1] 1.6354166666666970e+01
flow[sink_19,innode_2] 46.151185684092
flow[source_3,innode_4] 1.2284662476022551e+02
flow[source_2,innode_7] 1.5684432037816589e+02
flow[sink_3,innode_8] 1.5023890880053986e+02
pressure[innode_1] 76.4868993792898
pressure[innode_2] 7.9077881460937064e+01
pressure[innode_3] 7.8980476996268962e+01
pressure[innode_4] 81.01325
pressure[innode_5] 8.0961609766947262e+01
pressure[innode_6] 7.4605403577346735e+01
pressure[innode_7] 81.01325
pressure[innode_8] 8.0401727257926126e+01
pressure[source_1] 81.01325
pressure[source_2] 81.01325
pressure[source_3] 81.01325
pressure[sink_1] 44.2936156183836
pressure[sink_2] 7.5203626985137177e+01
pressure[sink_3] 8.0401727257926126e+01
pressure[sink_4] 5.3056863311043010e+01
pressure[sink_5] 4.9563552840973522e+01
pressure[sink_6] 4.6394693228770969e+01
pressure[sink_7] 4.5781212914954388e+01
pressure[sink_8] 6.5668181497426531e+01
pressure[sink_9] 5.2882120059253047e+01
pressure[sink_10] 7.6638600686893341e+01
pressure[sink_11] 76.4868993792898
pressure[sink_12] 1.01325
pressure[sink_13] 7.4651531975484374e+01
pressure[sink_14] 7.4695773428809545e+01
pressure[sink_15] 7.5048916786949547e+01
pressure[sink_16] 7.5465249544472115e+01
pressure[sink_17] 5.1459296081001483e+01
pressure[sink_18] 4.8898150769947414e+01
pressure[sink_19] 7.9077881460937064e+01
pressure[sink_20] 6.6807836921014825e+01
pressure[sink_21] 2.6934254412999170e+00
pressure[sink_22] 4.5357384760738604e+01
pressure[sink_23] 8.0237009246266339e+01
pressure[sink_24] 2.9268190961913829e+00
pressure[sink_25] 7.4605403577346735e+01
pressure[sink_26] 6.0451097405123612e+01
pressure[sink_27] 8.0338629738438371e+01
pressure[sink_28] 7.6522996593186036e+01
pressure[sink_29] 7.6818278866803212e+01
interdiction[source_1,sink_3] 0
interdiction[innode_1,sink_16] 0
interdiction[innode_6,sink_13] 0
interdiction[sink_13,sink_14] 0
interdiction[sink_14,sink_10] 0
interdiction[sink_25,sink_26] 0
interdiction[sink_26,sink_9] 0
interdiction[sink_9,sink_18] 0
interdiction[sink_26,sink_4] 0
interdiction[sink_4,sink_20] 1
interdiction[sink_18,sink_6] 0
interdiction[sink_25,innode_8] 0
interdiction[sink_6,sink_7] 0
interdiction[sink_6,sink_22] 0
interdiction[sink_7,sink_24] 0
interdiction[sink_22,sink_1] 0
interdiction[sink_24,sink_21] 0
interdiction[sink_21,sink_12] 0
interdiction[sink_7,sink_5] 0
interdiction[sink_5,sink_17] 0
interdiction[sink_17,sink_4] 0
interdiction[sink_17,sink_8] 1
interdiction[sink_3,sink_23] 0
interdiction[sink_8,sink_20] 0
interdiction[sink_25,sink_20] 0
interdiction[sink_25,sink_15] 0
interdiction[sink_15,sink_29] 0
interdiction[sink_29,sink_28] 0
interdiction[sink_29,sink_2] 0
interdiction[sink_2,sink_15] 0
interdiction[sink_29,innode_7] 0
interdiction[innode_4,sink_19] 0
interdiction[sink_19,innode_3] 0
interdiction[innode_4,innode_5] 0
interdiction[sink_27,innode_5] 0
interdiction[sink_27,sink_19] 0
interdiction[sink_10,sink_11] 0
interdiction[sink_10,innode_2] 0
interdiction[sink_10,innode_3] 0
interdiction[innode_6,sink_25] 0
interdiction[sink_11,innode_1] 0
interdiction[sink_19,innode_2] 0
interdiction[source_3,innode_4] 0
interdiction[source_2,innode_7] 0
interdiction[sink_3,innode_8] 0
WCcheckFlow[source_1,sink_3] 39
WCcheckFlow[innode_1,sink_16] 1
WCcheckFlow[innode_6,sink_13] 13
WCcheckFlow[sink_13,sink_14] 12
WCcheckFlow[sink_14,sink_10] 11
WCcheckFlow[sink_25,sink_26] 13
WCcheckFlow[sink_26,sink_9] 11
WCcheckFlow[sink_9,sink_18] 10
WCcheckFlow[sink_26,sink_4] 1
WCcheckFlow[sink_4,sink_20] 0
WCcheckFlow[sink_18,sink_6] 9
WCcheckFlow[sink_25,innode_8] -36
WCcheckFlow[sink_6,sink_7] 6
WCcheckFlow[sink_6,sink_22] 2
WCcheckFlow[sink_7,sink_24] 3
WCcheckFlow[sink_22,sink_1] 1
WCcheckFlow[sink_24,sink_21] 2
WCcheckFlow[sink_21,sink_12] 1
WCcheckFlow[sink_7,sink_5] 2
WCcheckFlow[sink_5,sink_17] 1
WCcheckFlow[sink_17,sink_4] 0
WCcheckFlow[sink_17,sink_8] 0
WCcheckFlow[sink_3,sink_23] 1
WCcheckFlow[sink_8,sink_20] -1
WCcheckFlow[sink_25,sink_20] 2
WCcheckFlow[sink_25,sink_15] 6
WCcheckFlow[sink_15,sink_29] 5
WCcheckFlow[sink_29,sink_28] 1
WCcheckFlow[sink_29,sink_2] 1
WCcheckFlow[sink_2,sink_15] 0
WCcheckFlow[sink_29,innode_7] 2
WCcheckFlow[innode_4,sink_19] -4
WCcheckFlow[sink_19,innode_3] -5
WCcheckFlow[innode_4,innode_5] 2
WCcheckFlow[sink_27,innode_5] -1
WCcheckFlow[sink_27,sink_19] 0
WCcheckFlow[sink_10,sink_11] 3
WCcheckFlow[sink_10,innode_2] 1
WCcheckFlow[sink_10,innode_3] 6
WCcheckFlow[innode_6,sink_25] -14
WCcheckFlow[sink_11,innode_1] 2
WCcheckFlow[sink_19,innode_2] 0
WCcheckFlow[source_3,innode_4] -1
WCcheckFlow[source_2,innode_7] -1
WCcheckFlow[sink_3,innode_8] 37
